Traveling Salesman Problem/TSP_generados/Aleatorio1620390924_9.tsp
NAME: Aleatorio1620390924_9.tsp
COMMENT: Randomly generated scenario
TYPE: TSP
DIMENSION: 9
EDGE_WEIGHT_TYPE: ATT
NODE_COORD_SECTION
1 39.98 8.65
2 6.89 21.73
3 19.56 18.89
4 5.72 46.81
5 27.74 37.03
6 34.48 4.29
7 43.79 43.78
8 26.19 21.37
9 11.73 34.14
