Traveling Salesman Problem/TSP_generados/Aleatorio1620390924_9.opt.tour
NAME: Aleatorio1620390924_9.opt.tour
COMMENT: Optimal solution for Aleatorio1620390924_9 (150.2524821750065)
TYPE: TOUR
DIMENSION: 9
TOUR_SECTION
1 7 5 4 9 2 3 8 6
-1
EOF
